results/x-long/X-n190-k8.vrp_seed-41.out
16984	1224
