results/x-long/X-n190-k8.vrp_seed-41.vrp.sol
Route #1: 37 29 83 182 160 184 1 165 88 44 127 172
Route #2: 73 112 169 78 147 12 86 125 137 151 174 181 41 152 87 186 146 177 123 52 71 101 47 5 176 24 97 143 95
Route #3: 109 35 8 100 42 90 96 3 15 27 187 124 140 189 154 53 20 65 114 9 55 69 135 46 31
Route #4: 105 19 57 63 66 171 13 120 168 110 4 163 128 34 103 108 129 156 133 72 139 149 45 99 118 131
Route #5: 106 119 49 26 117 175 11 122 82 116 60 79 17 155 7 162 33 107 23 164 158 121 75 93 51 67 16 14
Route #6: 159 142 104 89 6 2 38 77 22 36 39 30 150 80 85 138 28 58 43 10 102
Route #7: 92 145 115 144 94 50 178 179 62 59 91 113 111 74 161 134 132 173 157 166 170
Route #8: 81 68 21 56 130 48 54 126 76 40 32 61 180 153 84 18 185 70 141 98 148 167 136 183 25 64 188
Cost 16984.000000